x04m01e0t1tp5
3402
3402
3402
3402
3402
3402
3402
3402
3402
3402
3402
3402
3402
3402
3402
3402
3402
3402
3402
3402
3402
3402
3402
3402
3402
3402
3402
3402
3402
3402
3402
3402
3402
3402
3402
3402
3402
3402
3402
3402
3402
3402
3402
3402
3402
3402
3402
3402
3402
3402
3402
3402
3402
3402
3408
3484
3484
3484
3484
3484
3484
3484
3556
3556
3556
3556
3556
3556
3556
3556
3556
3556
3556
3556
3556
3556
3750
3750
3750
3750
3750
3750
3750
3750
3750
3750
3750
3750
3750
3750
3750
3750
3750
3750
3750
3750
3750
3750
3750
3750
3750
3750
3750
3750
3750
3750
3750
3750
3750
3750
3750
3750
3750
3750
3750
3750
3750
3750
3750
3750
3750
3750
3750
3750
3822
3822
3822
3822
3822
3822
3822
3822
3822
3822
3822
3822
3822
3822
3822
3822
3822
3822
3822
3822
3822
3822
3822
3822
3822
3822
3822
3822
3822
3822
3822
3822
3822
3822
3822
3822
3822
3822
3822
3822
3822
3822
3822
3822
3822
3822
3822
3822
3822
3822
3822
3822
3822
3822
3822
3822
3822
3822
3822
3822
3822
3822
3822
3822
3822
3822
3822
3822
3822
3822
3822
3822
3822
3822
3822
3822
3822
3822
3822
3822
3822
3822
3822
3822
3822
3822
3822
3822
3822
3822
3822
3822
3822
3822
3822
3822
3822
3822
3822
3822
3822
3822
3822
3822
3822
3822
3822
3822
3822
3822
3822
3822
3822
3822
3822
3822
3822
3822
3822
3822
3822
3822
3822
3822
3822
3822
3822
3822
3822
3822
3822
3822
3822
3822
3822
3822
3822
3822
3822
3822
3822
3822
3822
3822
3822
3822
3822
3822
3822
3822
3822
3822
3822
3822
3822
3822
3822
3822
3822
3822
3822
3822
3822
3822
3822
3822
3822
3822
3822
3822
3822
3822
3822
3822
3822
3822
3822
3822
3822
3822
3822
3822
3822
3822
3822
3822
3822
3822
3822
3822
3822
3822
3822
3822
3822
3822
3822
3822
3822
3822
3822
3822
3822
3822
3822
3822
3822
3822
3822
3822
3822
3822
3822
3822
3822
3822
3822
3822
3822
3822
3822
3822
3822
3822
3822
3822
3822
3822
3822
3822
3822
3822
3822
3822
3822
3822
3822
3822
3822
3822
3822
3822
3822
3822
3822
3822
3822
3822
3822
3822
3822
3822
3822
3822
3822
3822
3822
3822
3822
3822
3822
3822
3822
3822
3822
3822
3822
3822
3822
3822
3822
3822
3822
3822
3822
3822
3822
3822
3822
3822
3822
3822
3822
3822
3822
3822
3822
3822
3822
3822
3822
3822
3822
3822
3822
3822
3822
3822
3822
3822
3822
3822
3822
3822
3822
3822
3822
3822
3822
3822
3822
3822
3822
3822
3822
3822
3822
3822
3822
3822
3822
3822
3822
3822
3822
3822
3822
3822
3822
3822
3822
3822
3822
3822
3822
3822
3822
3822
3822
3822
3822
3822
3822
3822
3822
3822
3822
3822
3822
3822
3822
3822
3822
3822
3822
3822
3822
3822
3822
3822
3822
3822
3822
3822
3822
3822
3822
3822
3822
3822
3822
3822
3822
3822
3822
3822
3822
3822
3822
3841
3841
3841
3841
3841
3841
3841
3841
3841
3841
3841
3841
3841
3841
3841
3841
3841
3841
3841
3841
3841
3841
3841
3841
3841
3841
3841
3841
3841
3841
3841
3853
3853
3853
3853
3853
3853
3853
3853
3853
3853
3853
3853
3853
3853
3853
3853
3853
3853
3853
3853
3853
3853
3853
3853
3853
3853
3853
3853
3853
3853
3947
3947
3947
3947
3947
3947
3947
3947
3947
3947
3947
3947
3947
3947
3947
3947
3947
3947
3947
3947
3947
3947
3947
3947
3947
3947
3947
3947
3947
3947
3947
3947
3947
3947
3947
3947
3947
3947
3947
3947
3947
3947
3947
3947
3947
3947
3947
3947
3947
3947
3947
3947
3947
3947
3947
3947
3947
3947
3947
3947
3947
3947
3947
3947
3947
3947
3947
3947
3947
3947
3947
3947
3947
3947
3947
3947
3947
3947
3947
3947
3947
3947
3947
3947
3947
3947
3947
3947
3947
3947
3947
3947
3947
3947
3947
3947
3947
3947
3947
3947
3947
3947
3947
3947
3947
3947
3947
3947
3947
3947
3947
3947
3947
3947
3947
3947
3947
3947
3947
3947
3947
3947
3947
3947
3947
3947
3947
3947
3947
3947
3947
3947
3947
3947
3947
3947
3947
3947
3947
3947
3947
3947
3947
3947
3947
3947
3947
3947
3947
3947
3947
3947
3947
3947
3947
3947
3947
3947
3947
3947
3947
3947
3947
3947
3947
3947
3947
3947
3947
3947
3947
3947
3947
3947
3947
3947
3947
3947
3947
3947
3947
3947
3947
3947
3947
3947
3947
3947
3947
3947
3947
3947
3947
3947
3947
3947
3947
3947
3947
3947
3947
3947
3947
3947
3947
3947
3947
3947
3947
3947
3947
3947
3947
3947
3947
3947
3947
3947
3947
3947
3947
3947
3947
3947
3947
3947
3947
3947
3947
3947
3947
3947
3947
3947
3947
3947
3947
3947
3947
3947
3947
3947
3947
3947
3947
3947
3947
3947
3947
3947
3947
3947
3947
3947
3947
3947
3947
3947
3947
3947
3947
3947
3947
3947
3947
3947
3947
3947
3947
3947
3947
3947
3947
3947
3947
3947
3947
3947
3947
3947
3947
3947
3947
3947
3947
3947
3947
3947
3947
3947
3947
3947
3947
3947
3947
3947
3947
3947
3947
3947
3947
3947
3947
3947
3947
3947
3947
3947
3947
3947
3947
3947
3947
3947
3947
3947
3947
3947
3947
3947
3947
3947
3947
3947
3947
3947
3947
3947
3947
3947
3947
3947
3947
3947
3947
3947
3947
3947
3947
3947
3947
3947
3947
3947
3947
3947
3947
3947
3947
3947
3947
3947
3947
3947
3947
3947
3947
3947
3947
3947
3947
3947
3947
3947
3947
3947
3947
3947
3947
3947
3947
3947
3947
3947
3947
3947
3947
3947
3947
3947
3947
3947
3947
3947
3947
3947
3947
3947
3947
3947
3947
3947
3947
3947
3947
3947
3947
3947
3947
3947
3947
3947
3947
3947
3947
3947
3947
3947
3947
3947
3947
3947
3947
3947
3947
3947
3947
3947
3947
3947
3947
3947
3947
3947
3947
3947
3947
3947
3947
3947
3947
3947
3947
3947
3947
3947
